analyze/results_flowersnark/final_miplib_symretope_if_extended_generating_set_cpx_v802__settings_final_nopeek_norelabel_extend_norestarts__1__neos-777800.mps.gz.sol
solution status: optimal solution found
objective value:                                  -80
x#80#19                                             1 	(obj:-1)
x#79#74                                             1 	(obj:-1)
x#78#79                                             1 	(obj:-1)
x#77#50                                             1 	(obj:-1)
x#76#65                                             1 	(obj:-1)
x#75#73                                             1 	(obj:-1)
x#74#71                                             1 	(obj:-1)
x#73#55                                             1 	(obj:-1)
x#72#41                                             1 	(obj:-1)
x#71#76                                             1 	(obj:-1)
x#70#14                                             1 	(obj:-1)
x#69#25                                             1 	(obj:-1)
x#68#54                                             1 	(obj:-1)
x#67#34                                             1 	(obj:-1)
x#66#1                                              1 	(obj:-1)
x#65#37                                             1 	(obj:-1)
x#64#16                                             1 	(obj:-1)
x#63#29                                             1 	(obj:-1)
x#62#20                                             1 	(obj:-1)
x#61#12                                             1 	(obj:-1)
x#60#31                                             1 	(obj:-1)
x#59#53                                             1 	(obj:-1)
x#58#5                                              1 	(obj:-1)
x#57#21                                             1 	(obj:-1)
x#56#70                                             1 	(obj:-1)
x#55#42                                             1 	(obj:-1)
x#54#60                                             1 	(obj:-1)
x#53#7                                              1 	(obj:-1)
x#52#9                                              1 	(obj:-1)
x#51#58                                             1 	(obj:-1)
x#50#66                                             1 	(obj:-1)
x#49#23                                             1 	(obj:-1)
x#48#33                                             1 	(obj:-1)
x#47#27                                             1 	(obj:-1)
x#46#24                                             1 	(obj:-1)
x#45#6                                              1 	(obj:-1)
x#44#67                                             1 	(obj:-1)
x#43#52                                             1 	(obj:-1)
x#42#78                                             1 	(obj:-1)
x#41#63                                             1 	(obj:-1)
x#40#75                                             1 	(obj:-1)
x#39#30                                             1 	(obj:-1)
x#38#26                                             1 	(obj:-1)
x#37#68                                             1 	(obj:-1)
x#36#49                                             1 	(obj:-1)
x#35#72                                             1 	(obj:-1)
x#34#18                                             1 	(obj:-1)
x#33#8                                              1 	(obj:-1)
x#32#2                                              1 	(obj:-1)
x#31#35                                             1 	(obj:-1)
x#30#13                                             1 	(obj:-1)
x#29#61                                             1 	(obj:-1)
x#28#4                                              1 	(obj:-1)
x#27#56                                             1 	(obj:-1)
x#26#22                                             1 	(obj:-1)
x#25#15                                             1 	(obj:-1)
x#24#62                                             1 	(obj:-1)
x#23#77                                             1 	(obj:-1)
x#22#32                                             1 	(obj:-1)
x#21#47                                             1 	(obj:-1)
x#20#38                                             1 	(obj:-1)
x#19#40                                             1 	(obj:-1)
x#18#11                                             1 	(obj:-1)
x#17#59                                             1 	(obj:-1)
x#16#80                                             1 	(obj:-1)
x#15#64                                             1 	(obj:-1)
x#14#57                                             1 	(obj:-1)
x#13#43                                             1 	(obj:-1)
x#12#45                                             1 	(obj:-1)
x#11#51                                             1 	(obj:-1)
x#10#10                                             1 	(obj:-1)
x#9#36                                              1 	(obj:-1)
x#8#28                                              1 	(obj:-1)
x#7#46                                              1 	(obj:-1)
x#6#69                                              1 	(obj:-1)
x#5#39                                              1 	(obj:-1)
x#4#3                                               1 	(obj:-1)
x#3#44                                              1 	(obj:-1)
x#2#17                                              1 	(obj:-1)
x#1#48                                              1 	(obj:-1)
